RAW/CMTY/fspd/CMT9Y.vrp_seed-5.out
1160.682024	27.748	33.608
