RAW/CMTY/fspd/CMT9Y.vrp_seed-5.sol
Route #1: 11 126 16 127 53 129 29 79 21 118 130 50 78
Route #2: 27 138 48 112 61 7 69 23 57 6 102 46
Route #3: 37 137 44 107 65 93 42 92 147 17 63
Route #4: 148 141 94 40 88 64 19 150 87 142 145
Route #5: 108 52 15 45 91 72 33 124 123 71 90 103
Route #6: 76 49 104 30 105 75 74 34 9 62 38
Route #7: 143 135 111 66 41 136 13 67 134 55 18
Route #8: 97 86 43 99 114 113 26 60
Route #9: 100 2 83 131 20 59 3 101 22 51 32 77
Route #10: 81 8 140 82 31 28 70 80 120 1 119
Route #11: 68 132 98 24 96 95 25 58 14 133 110
Route #12: 12 144 109 149 4 146 56 47 139
Route #13: 5 10 54 39 89 117 73 106 125 122
Route #14: 116 121 115 36 85 35 84 128
Cost 1160.682024